p cnf 15 18
-15 12 7 13 -4 10 11 -3 8 -1 -9 14 -6 5 0
2 -12 -9 11 -8 5 3 4 7 0
-1 9 -4 3 -13 7 -15 12 2 0
-7 -4 -10 -1 3 2 0
-4 5 -2 6 1 -8 9 -7 11 0
-11 13 0
-13 -11 10 0
-15 -9 4 0
-6 -9 -4 12 15 11 3 -2 13 0
2 12 -9 -15 -6 -10 0
9 -7 -8 0
2 9 14 -8 -12 -15 5 4 -10 1 0
13 -10 -7 -15 -9 5 -11 -3 0
9 11 10 -12 -14 1 6 4 -15 0
7 13 -4 -10 -14 -8 0
1 -11 0
3 14 0
1 9 -8 12 0
